webassembly/ejemplos_dzn/5/folder5_json_28.dzn
TERM = { '.', 's(2)', 'in_1', 'in_2', 's(1)', 's(0)', 's(3)', 'in_0'};
null = '.';
s = 5;
n = 8;
ndeps = 1;
max_registers_sz = 3;
NR = 0;
registers = [| |];
dependencies = [|'i32.store16_0', 'i32.load8_s_1'|];
GET_ENUM = { GET1, GET2, GET3};
SET_ENUM = { SET1, SET2, SET3};
TEE_ENUM = { TEE1, TEE2, TEE3};
N = 5;
OP = { 'i32.const_0', 'i32.const_1', 'i32.add_0', 'i32.store16_0', 'i32.load8_s_1' };
in_ops = [0, 0, 2, 2, 1 ];
out_ops = [1, 1, 1, 0, 1 ];
in1 = ['.', '.', 's(3)', 'in_0', 'in_2' ];
in2 = ['.', '.', 's(0)', 'in_1', '.' ];
in3 = ['.', '.', '.', '.', '.' ];
out1 = ['s(2)', 's(3)', 's(1)', '.', 's(0)' ];
out2 = ['.', '.', '.', '.', '.' ];
out3 = ['.', '.', '.', '.', '.' ];
comm = [false, false, true, false, false ];
gas = [1, 1, 1, 1, 1 ];
sz = [1, 1, 1, 1, 1 ];
stor = [false, false, false, true, false ];
lb = [ 1, 1, 1, 1, 1 ];
ub = [ 5, 5, 5, 5, 5 ];
startstack = [ 'in_0', 'in_1', 'in_2', null, null, null, null, null ];
endstack = [ 's(2)', 's(1)', null, null, null, null, null, null ];
